RT is False
Default write of storage_offers_DA.csv just to have a file (but constraint should be inactive)
Reading model...
...model read.
creating competitive generators file...
...competitive generators recorded.
Loading data...
.. day-ahead data with real-time VRE data read.
Compiling instance...
...instance created.
Creating Offer Mitigation (model will solve as dispatch if TRUE)...
Solving...

Welcome to IBM(R) ILOG(R) CPLEX(R) Interactive Optimizer 12.8.0.0
  with Simplex, Mixed Integer & Barrier Optimizers
5725-A06 5725-A29 5724-Y48 5724-Y49 5724-Y54 5724-Y55 5655-Y21
Copyright IBM Corp. 1988, 2017.  All Rights Reserved.

Type 'help' for a list of available commands.
Type 'help' followed by a command name for more
information on commands.

CPLEX> Logfile 'cplex.log' closed.
Logfile 'C:\Users\llavi\Desktop\test919\logs\tmp7ip9w__o.cplex.log' open.
CPLEX> New value for parallel optimization mode: -1
CPLEX> New value for mixed integer optimality gap tolerance: 0.01
CPLEX> New value for integrality tolerance: 1e-09
CPLEX> New value for feasibility tolerance: 0.01
CPLEX> New value for deterministic time limit in ticks: 75000
CPLEX> Problem 'C:\Users\llavi\Desktop\test919\logs\tmpp_atal2d.pyomo.lp' read.
Read time = 0.23 sec. (3.03 ticks)
CPLEX> Problem name         : C:\Users\llavi\Desktop\test919\logs\tmpp_atal2d.pyomo.lp
Objective sense      : Minimize
Variables            :   26465  [Nneg: 1,  Box: 22000,  Free: 4464]
Objective nonzeros   :    2496
Linear constraints   :   27515  [Less: 14006,  Greater: 4416,  Equal: 9093]
  Nonzeros           :   89171
  RHS nonzeros       :   12271

Variables            : Min LB: -5000.000        Max UB: 1000000.       
Objective nonzeros   : Min   : 15.73158         Max   : 124.0997       
Linear constraints   :
  Nonzeros           : Min   : 0.8500000        Max   : 3000.000       
  RHS nonzeros       : Min   : 0.008333333      Max   : 5000.000       
CPLEX> CPXPARAM_Simplex_Tolerances_Feasibility          0.01
CPXPARAM_Parallel                                -1
CPXPARAM_DetTimeLimit                            75000
CPXPARAM_MIP_Tolerances_MIPGap                   0.01
CPXPARAM_MIP_Tolerances_Integrality              1.0000000000000001e-09
Parallel mode: opportunistic, using up to 4 threads for concurrent optimization.
Tried aggregator 1 time.
LP Presolve eliminated 21401 rows and 15895 columns.
Aggregator did 723 substitutions.
Reduced LP has 5391 rows, 9847 columns, and 31762 nonzeros.
Presolve time = 0.11 sec. (22.46 ticks)

Iteration log . . .
Iteration:     1   Dual objective     =             0.000000
Perturbation started.
Iteration:   101   Dual objective     =             0.000000
Iteration:   354   Dual objective     =             1.404151
Iteration:   637   Dual objective     =             2.037780
Iteration:   933   Dual objective     =             2.183137
Iteration:  1125   Dual objective     =             2.299128
Iteration:  1486   Dual objective     =             2.367593
Iteration:  1783   Dual objective     =             2.395201
Iteration:  2073   Dual objective     =             2.417990
Iteration:  2372   Dual objective     =          4994.023635
Iteration:  2659   Dual objective     =         24879.679912
Iteration:  2982   Dual objective     =         39232.320813
Iteration:  3355   Dual objective     =         39232.326974
Iteration:  3678   Dual objective     =         52903.607544
Iteration:  4049   Dual objective     =         59533.191862
Removing perturbation.

Dual simplex solved model.


Dual simplex - Optimal:  Objective =  6.3429219850e+04
Solution time =    0.33 sec.  Iterations = 4497 (0)
Deterministic time = 96.34 ticks  (292.82 ticks/sec)

CPLEX> Solution written to file 'C:\Users\llavi\Desktop\test919\logs\tmpl7ni26t6.cplex.sol'.
CPLEX> Exporting results... 
...storage offer mitigation file created
Converting model to MPEC...
...converted
NOTE: initial MIP solve with only storage competitive to get feasible solution
Solving...

Welcome to IBM(R) ILOG(R) CPLEX(R) Interactive Optimizer 12.8.0.0
  with Simplex, Mixed Integer & Barrier Optimizers
5725-A06 5725-A29 5724-Y48 5724-Y49 5724-Y54 5724-Y55 5655-Y21
Copyright IBM Corp. 1988, 2017.  All Rights Reserved.

Type 'help' for a list of available commands.
Type 'help' followed by a command name for more
information on commands.

CPLEX> Logfile 'cplex.log' closed.
Logfile 'C:\Users\llavi\Desktop\test919\logs\tmpqybdnw65.cplex.log' open.
CPLEX> New value for parallel optimization mode: -1
CPLEX> New value for mixed integer optimality gap tolerance: 0.01
CPLEX> New value for integrality tolerance: 1e-09
CPLEX> New value for feasibility tolerance: 0.01
CPLEX> New value for deterministic time limit in ticks: 75000
CPLEX> Problem 'C:\Users\llavi\Desktop\test919\logs\tmpcasxynfe.pyomo.lp' read.
Read time = 0.70 sec. (13.96 ticks)
CPLEX> Problem name         : C:\Users\llavi\Desktop\test919\logs\tmpcasxynfe.pyomo.lp
Objective sense      : Maximize
Variables            :   53805  [Nneg: 1,  Box: 22000,  Free: 4464,
                                 Binary: 27340]
Objective nonzeros   :    9078
Linear constraints   :  123205  [Less: 41346,  Greater: 59096,  Equal: 22763]
  Nonzeros           :  291705
  RHS nonzeros       :   67431

Variables            : Min LB: -5000.000        Max UB: 1000000.       
Objective nonzeros   : Min   : 0.008333333      Max   : 2500.000       
Linear constraints   :
  Nonzeros           : Min   : 0.008333333      Max   : 1000000.       
  RHS nonzeros       : Min   : 0.008333333      Max   : 1000000.       
CPLEX> CPXPARAM_Simplex_Tolerances_Feasibility          0.01
CPXPARAM_Parallel                                -1
CPXPARAM_DetTimeLimit                            75000
CPXPARAM_MIP_Tolerances_MIPGap                   0.01
CPXPARAM_MIP_Tolerances_Integrality              1.0000000000000001e-09
Tried aggregator 3 times.
MIP Presolve eliminated 88686 rows and 19034 columns.
MIP Presolve added 3350 rows and 0 columns.
MIP Presolve modified 23842 coefficients.
Aggregator did 12970 substitutions.
Reduced MIP has 24899 rows, 21245 columns, and 70978 nonzeros.
Reduced MIP has 8413 binaries, 0 generals, 0 SOSs, and 0 indicators.
Presolve time = 0.70 sec. (168.15 ticks)
Probing fixed 405 vars, tightened 2890 bounds.
Probing time = 5.69 sec. (902.09 ticks)
Tried aggregator 2 times.
MIP Presolve eliminated 907 rows and 810 columns.
MIP Presolve modified 2235 coefficients.
Aggregator did 42 substitutions.
Reduced MIP has 23950 rows, 20393 columns, and 68228 nonzeros.
Reduced MIP has 8008 binaries, 0 generals, 0 SOSs, and 0 indicators.
Presolve time = 0.25 sec. (54.27 ticks)
Probing time = 0.08 sec. (14.91 ticks)
Clique table members: 6465.
MIP emphasis: balance optimality and feasibility.
MIP search method: dynamic search.
Parallel mode: opportunistic, using up to 4 threads.
Root relaxation solution time = 0.80 sec. (479.69 ticks)

        Nodes                                         Cuts/
   Node  Left     Objective  IInf  Best Integer    Best Bound    ItCnt     Gap

      0     0      -36.2854   688                    -36.2854     2630         
      0     0      -36.2854    16                    Cuts: 46     2647         
      0     0      -36.2854    14                 Flowcuts: 8     2649         
      0     2      -36.2854    11                    -36.2854     2649         
Elapsed time = 26.06 sec. (4563.95 ticks, tree = 0.01 MB, solutions = 0)
     80     2      -36.2854    12                    -36.2854     4735         
    167     4      -36.2854    11                    -36.2854     8192         
    240    21   -96981.3336     8                    -41.0231     8511         
    308    59  -154897.9208    15                    -41.0231     9522         
    370    94    infeasible                          -41.0231    10453         
*   374   116      integral     0    -3576.0088      -41.0231    13012   98.85%
    421   130     -995.8386     1    -3576.0088      -41.0231    13975   98.85%
    474   103        cutoff          -3576.0088      -41.0231    14273   98.85%
    514   119    -2868.6593     4    -3576.0088      -41.0231    14359   98.85%
    565   167      -66.5764     4    -3576.0088      -41.0231    14564   98.85%
    726   276     -756.9020     6    -3576.0088      -41.0231    14980   98.85%
Elapsed time = 36.23 sec. (7722.33 ticks, tree = 10.39 MB, solutions = 1)
    830   335        cutoff          -3576.0088      -41.0231    15320   98.85%
    933   439        cutoff          -3576.0088      -41.0231    15768   98.85%
    975   385     -414.8741     3    -3576.0088      -41.0231    15562   98.85%
   1010   447        cutoff          -3576.0088      -41.0231    15825   98.85%
   1037   447        cutoff          -3576.0088      -41.0231    15814   98.85%
   1062   449     -414.8741     3    -3576.0088      -41.0231    15828   98.85%
   1089   451        cutoff          -3576.0088      -41.0231    15842   98.85%
   1110   453     -414.8741     3    -3576.0088      -41.0231    15853   98.85%
   1135   454        cutoff          -3576.0088      -41.0231    15883   98.85%
   1154   457    -1686.7665     2    -3576.0088      -41.0231    15885   98.85%
Elapsed time = 58.17 sec. (17511.51 ticks, tree = 12.60 MB, solutions = 1)
   1176   460        cutoff          -3576.0088      -41.0231    15903   98.85%
   1197   462        cutoff          -3576.0088      -41.0231    15902   98.85%
   1213   465        cutoff          -3576.0088      -41.0231    15922   98.85%
   1231   466     -414.8741     3    -3576.0088      -41.0231    15930   98.85%
   1248   469    -1686.7665     2    -3576.0088      -41.0231    15948   98.85%
   1264   469     -250.2400     1    -3576.0088      -41.0231    15954   98.85%
   1281   470     -250.2400     1    -3576.0088      -41.0231    15966   98.85%
   1297   470     -250.2400     1    -3576.0088      -41.0231    15968   98.85%
   1313   474     -250.2400     1    -3576.0088      -41.0231    15986   98.85%
   1327   478     -250.2400     1    -3576.0088      -41.0231    15998   98.85%
Elapsed time = 78.80 sec. (27605.19 ticks, tree = 13.03 MB, solutions = 1)
   1339   478     -414.8741     4    -3576.0088      -41.0231    16003   98.85%
   1389   517    -2266.8743     1    -3576.0088      -41.0231    16144   98.85%
   1471   558    -3502.6834     3    -3576.0088      -41.0231    16296   98.85%
   1601   662     -143.7065     1    -3576.0088      -41.0231    16676   98.85%
   1748   739     -145.8708     2    -3576.0088      -41.0231    16964   98.85%
   1886   752    -1848.3692     3    -3576.0088      -41.0231    17213   98.85%
   2013   889    -1948.0396     1    -3576.0088      -41.0231    17760   98.85%
   2106  1026    -1325.0831     2    -3576.0088      -41.0231    18217   98.85%
   2182  1136    -1350.2527     1    -3576.0088      -41.0231    18919   98.85%
   2264  1179    -1591.0081     3    -3576.0088      -41.0231    19179   98.85%
Elapsed time = 106.92 sec. (37208.58 ticks, tree = 25.22 MB, solutions = 1)
   2307  1186        cutoff          -3576.0088      -41.0231    19207   98.85%
   2331   892    infeasible          -3576.0088      -41.0231    17795   98.85%
   2352  1186        cutoff          -3576.0088      -41.0231    19219   98.85%
   2376  1187    -1709.4407     1    -3576.0088      -41.0231    19224   98.85%
   2398  1193    -1709.4407     1    -3576.0088      -41.0231    19266   98.85%
   2415  1133    -1948.0396     1    -3576.0088      -41.0231    18911   98.85%
   2438  1133     -414.8741     3    -3576.0088      -41.0231    18889   98.85%
   2457  1133    -1948.0396     1    -3576.0088      -41.0231    18917   98.85%
   2476  1135     -414.8741     3    -3576.0088      -41.0231    18895   98.85%
   2503  1202     -589.6004     5    -3576.0088      -41.0231    19360   98.85%
Elapsed time = 130.53 sec. (47729.89 ticks, tree = 25.82 MB, solutions = 1)
   2540  1211    -1795.3264     2    -3576.0088      -41.0231    19385   98.85%
   2565  1211    -1795.3264     2    -3576.0088      -41.0231    19392   98.85%
   2587  1215    -1709.4407     1    -3576.0088      -41.0231    19441   98.85%
   2604  1215    -1709.4407     1    -3576.0088      -41.0231    19445   98.85%
   2622  1213    -1795.3264     2    -3576.0088      -41.0231    19420   98.85%
   2639  1213    -1795.3264     2    -3576.0088      -41.0231    19424   98.85%
   2656  1213    -1795.3264     2    -3576.0088      -41.0231    19428   98.85%
   2674  1221    -1709.4407     1    -3576.0088      -41.0231    19493   98.85%
   2694  1226    -1765.0804     1    -3576.0088      -41.0231    19514   98.85%
   2704  1225        cutoff          -3576.0088      -41.0231    19515   98.85%
Elapsed time = 153.53 sec. (58657.60 ticks, tree = 26.00 MB, solutions = 1)
   2716  1219    -1795.3264     2    -3576.0088      -41.0231    19476   98.85%
   2738  1221        cutoff          -3576.0088      -41.0231    19509   98.85%
   2748  1221     -250.2400     1    -3576.0088      -41.0231    19470   98.85%
   2761  1237    -2252.2031     1    -3576.0088      -41.0231    19552   98.85%
   2774  1222    -1795.3264     2    -3576.0088      -41.0231    19517   98.85%
   2820  1225    -1795.3264     2    -3576.0088      -41.0231    19539   98.85%
   2890  1337     -120.5834     1    -3576.0088      -41.0231    19877   98.85%
   2983  1415     -146.3675     1    -3576.0088      -41.0231    20169   98.85%
   3074  1486     -142.1794     4    -3576.0088      -41.0231    20465   98.85%
   3146  1534    -1348.6690     2    -3576.0088      -41.0231    20729   98.85%
Elapsed time = 178.03 sec. (68898.90 ticks, tree = 26.85 MB, solutions = 1)
   3191  1551    infeasible          -3576.0088      -41.0231    20807   98.85%
   3201  1228     -250.2400     1    -3576.0088      -41.0231    19552   98.85%
   3209  1250    -1795.6934     1    -3576.0088      -41.0231    19643   98.85%
   3216  1250    -1795.6934     1    -3576.0088      -41.0231    19644   98.85%
   3223  1251     -414.8741     3    -3576.0088      -41.0231    19647   98.85%

Cover cuts applied:  1
Implied bound cuts applied:  4
Flow cuts applied:  28
Gomory fractional cuts applied:  16

Root node processing (before b&c):
  Real time             =   25.05 sec. (4526.11 ticks)
Parallel b&c, 4 threads:
  Real time             =  155.55 sec. (71008.22 ticks)
  Sync time (average)   =    2.38 sec.
  Wait time (average)   =    0.03 sec.
                          ------------
Total (root+branch&cut) =  180.59 sec. (75534.33 ticks)

Solution pool: 1 solution saved.

MIP - Deterministic time limit exceeded, integer feasible:  Objective = -3.5760087593e+03
Current MIP best bound = -4.1023070916e+01 (gap = 3534.99, 98.85%)
Solution time =  180.59 sec.  Iterations = 20863  Nodes = 3225 (1564)
Deterministic time = 75534.48 ticks  (418.26 ticks/sec)

CPLEX> Incumbent solution written to file 'C:\Users\llavi\Desktop\test919\logs\tmpaogpupyr.cplex.sol'.
CPLEX> NOTE: no warmstart specified for MIP iteration, default behavior is true
NOTE: resolving with all competitive generators using storage-only solution to warmstart
Solving...

Welcome to IBM(R) ILOG(R) CPLEX(R) Interactive Optimizer 12.8.0.0
  with Simplex, Mixed Integer & Barrier Optimizers
5725-A06 5725-A29 5724-Y48 5724-Y49 5724-Y54 5724-Y55 5655-Y21
Copyright IBM Corp. 1988, 2017.  All Rights Reserved.

Type 'help' for a list of available commands.
Type 'help' followed by a command name for more
information on commands.

CPLEX> Logfile 'cplex.log' closed.
Logfile 'C:\Users\llavi\Desktop\test919\logs\tmphuqhyq1o.cplex.log' open.
CPLEX> New value for parallel optimization mode: -1
CPLEX> New value for mixed integer optimality gap tolerance: 0.01
CPLEX> New value for integrality tolerance: 1e-09
CPLEX> New value for feasibility tolerance: 0.01
CPLEX> New value for deterministic time limit in ticks: 75000
CPLEX> Problem 'C:\Users\llavi\Desktop\test919\logs\tmpocmh2ilr.pyomo.lp' read.
Read time = 0.56 sec. (13.98 ticks)
CPLEX> MIP start file 'C:\Users\llavi\Desktop\test919\logs\tmprb5qqy69.cplex.mst' read.
CPLEX> Problem name         : C:\Users\llavi\Desktop\test919\logs\tmpocmh2ilr.pyomo.lp
Objective sense      : Maximize
Variables            :   54525  [Nneg: 1,  Box: 22720,  Free: 4464,
                                 Binary: 27340]
Objective nonzeros   :    9774
Linear constraints   :  123205  [Less: 41346,  Greater: 59096,  Equal: 22763]
  Nonzeros           :  291705
  RHS nonzeros       :   67431

Variables            : Min LB: -5000.000        Max UB: 1000000.       
Objective nonzeros   : Min   : 0.008333333      Max   : 2500.000       
Linear constraints   :
  Nonzeros           : Min   : 0.008333333      Max   : 1000000.       
  RHS nonzeros       : Min   : 0.008333333      Max   : 1000000.       
CPLEX> CPXPARAM_Simplex_Tolerances_Feasibility          0.01
CPXPARAM_Parallel                                -1
CPXPARAM_DetTimeLimit                            75000
CPXPARAM_MIP_Tolerances_MIPGap                   0.01
CPXPARAM_MIP_Tolerances_Integrality              1.0000000000000001e-09
Warning:  No solution found from 1 MIP starts.
Retaining values of one MIP start for possible repair.
Tried aggregator 3 times.
MIP Presolve eliminated 88686 rows and 19754 columns.
MIP Presolve added 3350 rows and 0 columns.
MIP Presolve modified 23842 coefficients.
Aggregator did 12970 substitutions.
Reduced MIP has 24899 rows, 21245 columns, and 70978 nonzeros.
Reduced MIP has 8413 binaries, 0 generals, 0 SOSs, and 0 indicators.
Presolve time = 0.56 sec. (168.52 ticks)
Probing fixed 405 vars, tightened 2890 bounds.
Probing time = 5.67 sec. (902.09 ticks)
Tried aggregator 2 times.
MIP Presolve eliminated 907 rows and 810 columns.
MIP Presolve modified 2235 coefficients.
Aggregator did 42 substitutions.
Reduced MIP has 23950 rows, 20393 columns, and 68228 nonzeros.
Reduced MIP has 8008 binaries, 0 generals, 0 SOSs, and 0 indicators.
Presolve time = 0.17 sec. (54.28 ticks)
Probing time = 0.08 sec. (14.91 ticks)
Clique table members: 6465.
MIP emphasis: balance optimality and feasibility.
MIP search method: dynamic search.
Parallel mode: opportunistic, using up to 4 threads.
Root relaxation solution time = 0.63 sec. (194.22 ticks)

        Nodes                                         Cuts/
   Node  Left     Objective  IInf  Best Integer    Best Bound    ItCnt     Gap

      0     0   106846.9238  1797                 106846.9238     2716         
      0     0   103198.7752   653                   Cuts: 595     3074         
      0     0   102540.8126   577                   Cuts: 266     3209         
      0     0   102452.8565   555                   Cuts: 118     3265         
      0     0   102440.8114   541                    Cuts: 88     3301         
      0     0   102440.4427   535                    Cuts: 75     3337         
      0     0   102425.1825   514                    Cuts: 57     3359         
      0     0   102425.1825   509                    Cuts: 51     3372         
      0     0   102425.1825   503                    Cuts: 50     3388         
Repair heuristic found nothing.
      0     2   102425.1825   504                 100310.6890     3389         
Elapsed time = 71.23 sec. (14530.96 ticks, tree = 0.03 MB, solutions = 0)
     52    30    82358.0811   437                 100310.6890     5227         
    111    61    84557.6073   424                 100310.6890     6600         
    189    63    infeasible                       100310.6890     8585         
    260   103    75842.8904   403                 100310.6890    11399         
    342   120    75136.3037   398                 100310.6890    12491         
    400   137    54224.2863   386                 100310.6890    15591         
    472   186    60904.9031   352                 100310.6890    16359         
    524   228    40532.0523   350                 100310.6890    17191         
    603   268    25448.2270   335                 100310.6890    17897         
   1039   658      728.8136   330                 100310.6890    20234         
Elapsed time = 80.95 sec. (17669.13 ticks, tree = 6.10 MB, solutions = 0)
   1411   906    64104.2860   417                  99737.5016    23927         
   1787  1150    49365.0552   338                  99737.5016    25459         
   2085  1406    48874.2036   268                  98197.2161    27461         
   2423  1659    45492.5565   257                  98197.2161    30073         
*  2599  1947      integral     0    48874.2036    98197.2161    32469  100.92%
   2961   580        cutoff          48874.2036    97121.9758    34982   98.72%
   3295   701    50080.2051   390    48874.2036    95879.8358    37403   96.18%
   3586   961    51543.9468   345    48874.2036    86609.6066    41471   77.21%
   3887  1109    51012.2282   338    48874.2036    86509.6158    41702   77.00%
*  3928   897      integral     0    48874.2036    48874.2036    50688    0.00%
Elapsed time = 117.63 sec. (28307.69 ticks, tree = 9.50 MB, solutions = 1)

GUB cover cuts applied:  1
Clique cuts applied:  12
Cover cuts applied:  48
Implied bound cuts applied:  18
Flow cuts applied:  1111
Mixed integer rounding cuts applied:  237
Gomory fractional cuts applied:  136

Root node processing (before b&c):
  Real time             =   70.83 sec. (14484.36 ticks)
Parallel b&c, 4 threads:
  Real time             =   46.84 sec. (13824.55 ticks)
  Sync time (average)   =    0.13 sec.
  Wait time (average)   =    0.02 sec.
                          ------------
Total (root+branch&cut) =  117.67 sec. (28308.91 ticks)

Solution pool: 1 solution saved.

MIP - Integer optimal solution:  Objective =  4.8874203631e+04
Solution time =  117.67 sec.  Iterations = 50688  Nodes = 3928
Deterministic time = 28309.06 ticks  (240.58 ticks/sec)

CPLEX> Incumbent solution written to file 'C:\Users\llavi\Desktop\test919\logs\tmpn7dekdyi.cplex.sol'.
CPLEX> Exporting results... 
